solution status: optimal solution found
objective value:                                    0
$_217_y                                             4 	(obj:0)
$_217_z                                             9 	(obj:0)
$_194_y                                             7 	(obj:0)
$_194_z                                            13 	(obj:0)
$_218_y                                             8 	(obj:0)
$_218_z                                            13 	(obj:0)
$_258_z                                             6 	(obj:0)
$_235_y                                             5 	(obj:0)
$_235_z                                            10 	(obj:0)
$_72_y                                             -5 	(obj:0)
$_72_z                                              1 	(obj:0)
$_69_y                                             -6 	(obj:0)
$_69_z                                              1 	(obj:0)
$_259_y                                             4 	(obj:0)
$_259_z                                            10 	(obj:0)
$_139_y                                             9 	(obj:0)
$_139_z                                             9 	(obj:0)
$_138_y                                            -4 	(obj:0)
$_138_z                                             3 	(obj:0)
$_176_y                                             8 	(obj:0)
$_176_z                                             9 	(obj:0)
$_177_y                                            12 	(obj:0)
$_177_z                                            13 	(obj:0)
$_47_y                                              6 	(obj:0)
$_47_z                                              7 	(obj:0)
$_285_z                                             7 	(obj:0)
$_153_y                                             8 	(obj:0)
$_153_z                                            15 	(obj:0)
$_50_y                                              2 	(obj:0)
$_50_z                                              9 	(obj:0)
$_276_y                                             1 	(obj:0)
$_276_z                                             7 	(obj:0)
